solution status: optimal solution found
objective value:                                 8806
y$1                                                 1 	(obj:0)
y$2                                                 1 	(obj:0)
y$3                                                 1 	(obj:0)
y$4                                                 1 	(obj:0)
y$5                                                 1 	(obj:0)
y$6                                                 1 	(obj:0)
y$7                                                 1 	(obj:0)
y$8                                                 1 	(obj:0)
y$9                                                 1 	(obj:0)
y$10                                                1 	(obj:0)
x$1$5                                               1 	(obj:0)
x$2$1                                               1 	(obj:0)
x$3$3                                               1 	(obj:0)
x$4$3                                               1 	(obj:0)
x$5$2                                               1 	(obj:0)
x$6$10                                              1 	(obj:0)
x$7$10                                              1 	(obj:0)
x$8$10                                              1 	(obj:0)
x$9$3                                               1 	(obj:0)
x$10$5                                              1 	(obj:0)
x$11$9                                              1 	(obj:0)
x$12$2                                              1 	(obj:0)
x$13$5                                              1 	(obj:0)
x$14$10                                             1 	(obj:0)
x$15$8                                              1 	(obj:0)
x$16$6                                              1 	(obj:0)
x$17$8                                              1 	(obj:0)
x$18$2                                              1 	(obj:0)
x$19$9                                              1 	(obj:0)
x$20$6                                              1 	(obj:0)
x$21$10                                             1 	(obj:0)
x$22$9                                              1 	(obj:0)
x$23$7                                              1 	(obj:0)
x$24$4                                              1 	(obj:0)
x$25$8                                              1 	(obj:0)
x$26$7                                              1 	(obj:0)
x$27$6                                              1 	(obj:0)
x$28$6                                              1 	(obj:0)
x$29$4                                              1 	(obj:0)
x$30$9                                              1 	(obj:0)
x$31$8                                              1 	(obj:0)
x$32$3                                              1 	(obj:0)
x$33$4                                              1 	(obj:0)
x$34$7                                              1 	(obj:0)
x$35$3                                              1 	(obj:0)
x$36$5                                              1 	(obj:0)
x$37$3                                              1 	(obj:0)
x$38$8                                              1 	(obj:0)
x$39$1                                              1 	(obj:0)
x$40$2                                              1 	(obj:0)
x$41$7                                              1 	(obj:0)
x$42$6                                              1 	(obj:0)
x$43$1                                              1 	(obj:0)
x$44$2                                              1 	(obj:0)
x$45$5                                              1 	(obj:0)
x$46$4                                              1 	(obj:0)
x$47$1                                              1 	(obj:0)
x$48$7                                              1 	(obj:0)
x$49$1                                              1 	(obj:0)
x$50$8                                              1 	(obj:0)
x$51$5                                              1 	(obj:0)
x$52$10                                             1 	(obj:0)
x$53$9                                              1 	(obj:0)
x$54$4                                              1 	(obj:0)
x$55$2                                              1 	(obj:0)
x$56$1                                              1 	(obj:0)
H                                                8800 	(obj:1)
T                                                   6 	(obj:1)
